
Gurobi 11.0.3 (linux64) logging started Mon Aug 25 13:20:58 2025

Set parameter LogFile to value "/home/yihong/Coding/OR_SUC/SUC_epstheta_results_bigM100000_thread4/case24_ieee_rts_theta0.1_epsilon0.1_gurobi_seed200000_num_gen100_N_WDR50_load_scaling_factor1_ori_eps_T2quadra_cost_bc1.03.txt"
Set parameter TimeLimit to value 3600
Gurobi Optimizer version 11.0.3 build v11.0.3rc0 (linux64 - "Ubuntu 20.04.6 LTS")

CPU model: AMD EPYC 7532 32-Core Processor, instruction set [SSE2|AVX|AVX2]
Thread count: 64 physical cores, 128 logical processors, using up to 4 threads

Academic license 2399124 - for non-commercial use only - registered to yi___@ed.ac.uk
Optimize a model with 4290 rows, 2531 columns and 107910 nonzeros
Model fingerprint: 0x8610bb3c
Model has 200 quadratic constraints
Variable types: 2331 continuous, 200 integer (200 binary)
Coefficient statistics:
  Matrix range     [3e-04, 2e+03]
  QMatrix range    [2e-03, 8e-03]
  QLMatrix range   [6e-01, 6e+01]
  Objective range  [1e+00, 1e+00]
  Bounds range     [1e+00, 1e+00]
  RHS range        [1e+00, 8e+03]
Presolve removed 3724 rows and 1281 columns
Presolve time: 0.02s
Presolved: 566 rows, 1250 columns, 3931 nonzeros
Presolved model has 200 quadratic constraint(s)
Variable types: 1050 continuous, 200 integer (200 binary)

Root relaxation: objective 2.286415e+03, 361 iterations, 0.00 seconds (0.00 work units)

    Nodes    |    Current Node    |     Objective Bounds      |     Work
 Expl Unexpl |  Obj  Depth IntInf | Incumbent    BestBd   Gap | It/Node Time

     0     0 2286.41516    0    6          - 2286.41516      -     -    0s
     0     0 2711.06743    0   52          - 2711.06743      -     -    0s
H    0     0                    44284.016427 6326.40331  85.7%     -    0s
     0     0 6326.40331    0   92 44284.0164 6326.40331  85.7%     -    0s
     0     0 19982.7696    0   94 44284.0164 19982.7696  54.9%     -    0s
     0     0 31219.9722    0    2 44284.0164 31219.9722  29.5%     -    0s
     0     0 31228.6012    0    2 44284.0164 31228.6012  29.5%     -    0s
     0     0 31228.6335    0    2 44284.0164 31228.6335  29.5%     -    0s
     0     0 31230.8387    0    2 44284.0164 31230.8387  29.5%     -    0s
     0     2 31230.8387    0    2 44284.0164 31230.8387  29.5%     -    0s
H   20    20                    31249.959811 31232.1997  0.06%   9.5    0s
*   20    20               6    31249.959811 31232.1997  0.06%  10.2    0s

Cutting planes:
  Gomory: 10
  Implied bound: 53
  MIR: 22
  Flow cover: 130
  Relax-and-lift: 12

Explored 23 nodes (1967 simplex iterations) in 0.28 seconds (0.18 work units)
Thread count was 4 (of 128 available processors)

Solution count 3: 31250 31250 44284 

Optimal solution found (tolerance 1.00e-03)
Warning: max constraint violation (1.1171e-08) exceeds tolerance
Best objective 3.124995981129e+04, best bound 3.123219971864e+04, gap 0.0568%

Gurobi 11.0.3 (linux64) logging started Mon Aug 25 13:20:59 2025

Set parameter LogFile to value "/home/yihong/Coding/OR_SUC/SUC_epstheta_results_bigM100000_thread4/case24_ieee_rts_theta0.1_epsilon0.1_gurobi_seed200000_num_gen100_N_WDR50_load_scaling_factor1_ori_eps_T2quadra_cost_bc1.03.txt"
Set parameter TimeLimit to value 3600
Gurobi Optimizer version 11.0.3 build v11.0.3rc0 (linux64 - "Ubuntu 20.04.6 LTS")

CPU model: AMD EPYC 7532 32-Core Processor, instruction set [SSE2|AVX|AVX2]
Thread count: 64 physical cores, 128 logical processors, using up to 4 threads

Academic license 2399124 - for non-commercial use only - registered to yi___@ed.ac.uk
Optimize a model with 11154 rows, 2532 columns and 850651 nonzeros
Model fingerprint: 0xe7f65364
Model has 201 quadratic constraints
Variable types: 2332 continuous, 200 integer (200 binary)
Coefficient statistics:
  Matrix range     [3e-04, 2e+03]
  QMatrix range    [2e-03, 5e+01]
  QLMatrix range   [6e-01, 6e+01]
  Objective range  [1e+00, 1e+00]
  Bounds range     [1e-01, 1e+00]
  RHS range        [1e-01, 3e+04]
  QRHS range       [5e+00, 5e+00]
Presolve removed 3406 rows and 1121 columns
Presolve time: 0.78s
Presolved: 7950 rows, 1612 columns, 171591 nonzeros
Presolved model has 200 quadratic constraint(s)
Presolved model has 1 bilinear constraint(s)
Warning: Model contains variables with very large bounds participating
         in product terms.
         Presolve was not able to compute smaller bounds for these variables.
         Consider bounding these variables or reformulating the model.


Solving non-convex MIQCP

Variable types: 1408 continuous, 204 integer (204 binary)

Root relaxation: objective 0.000000e+00, 872 iterations, 0.10 seconds (0.29 work units)

    Nodes    |    Current Node    |     Objective Bounds      |     Work
 Expl Unexpl |  Obj  Depth IntInf | Incumbent    BestBd   Gap | It/Node Time

     0     0    0.00000    0    3          -    0.00000      -     -    2s
     0     0    0.00000    0    1          -    0.00000      -     -    2s
H    0     0                       0.0403928    0.00000   100%     -   31s
H    0     0                       0.0199301    0.00000   100%     -   31s
H    0     0                       0.0195728    0.00000   100%     -   31s
H    0     0                       0.0195728    0.01957  0.00%     -   31s

Cutting planes:
  Gomory: 1
  Implied bound: 2

Explored 1 nodes (988 simplex iterations) in 31.47 seconds (20.72 work units)
Thread count was 4 (of 128 available processors)

Solution count 4: 0.0195728 0.0195728 0.0199301 0.0403928 

Optimal solution found (tolerance 1.00e-03)
Best objective 1.957276179907e-02, best bound 1.957250481817e-02, gap 0.0013%
